c WARNING: for repeatability, setting FPU to use double precision
d VARIABLES            228738       
d CONSTRAINTS          847176       
c ============================[ Problem Statistics ]=============================
c |                                                                             |
c |  Number of variables:        228738                                         |
c |  Number of clauses:          847176                                         |
c |  Parse time:                   0.14 s                                       |
c |                                                                             |
c ============================[ Search Statistics ]==============================
c | Conflicts |          ORIGINAL         |          LEARNT          | Progress |
c |           |    Vars  Clauses Literals |    Limit  Clauses Lit/Cl |          |
c ===============================================================================
c |       100 |  188479   742754  1863597 |   272343      100    214 | 17.600 % |
c |       250 |  188479   742754  1863597 |   299577      250    114 | 17.600 % |
c |       475 |  188479   742754  1863597 |   329535      475     61 | 17.600 % |
c |       812 |  188479   742754  1863597 |   362488      812     38 | 17.600 % |
c |      1318 |  188479   742754  1863597 |   398737     1318     25 | 17.600 % |
c |      2077 |  188479   742754  1863597 |   438611     2077     50 | 17.600 % |
c |      3216 |  188479   742754  1863597 |   482472     3216     79 | 17.600 % |
c |      4924 |  188479   742754  1863597 |   530719     4924     74 | 17.600 % |
c |      7486 |  188479   742754  1863597 |   583791     7486    106 | 17.600 % |
c |     11330 |  188479   742754  1863597 |   642170    11330    105 | 17.600 % |
c |     17096 |  188479   742754  1863597 |   706387    17096    115 | 17.600 % |
c |     25745 |  188479   742754  1863597 |   777026    25745    124 | 17.600 % |
c |     38719 |  188479   742754  1863597 |   854729    38719    128 | 17.600 % |
c |     58180 |  188479   742754  1863597 |   940202    58180    132 | 17.600 % |
c |     87372 |  188479   742754  1863597 |  1034222    87372    138 | 17.600 % |
c |    131161 |  188479   742754  1863597 |  1137644   131161    145 | 17.600 % |
c |    196845 |  188479   742754  1863597 |  1251409   196845    143 | 17.600 % |
c |    295371 |  188479   742754  1863597 |  1376550   295371    160 | 17.600 % |
c |    443160 |  188479   742754  1863597 |  1514205   443160    172 | 17.600 % |
c |    664843 |  188479   742754  1863597 |  1665625   664843    189 | 17.600 % |
c |    997368 |  188479   742754  1863597 |  1832188   997368    204 | 17.600 % |
c ===============================================================================
c restarts              : 2047
c conflicts             : 1078878        (1814 /sec)
c decisions             : 4610407        (0.00 % random) (7753 /sec)
c propagations          : 1520932469     (2557594 /sec)
c conflict literals     : 236621248      (21.78 % deleted)
d RESTARTS             2047
d FAILURES             1078878      
d NODES                4610407      
d BACKTRACKS           4610407      
d PROPAGATIONS         1520932469   
d NOGOODSIZE           219.32 
d MEMORY               1574.00 
d TIME                 594.673 

s SATISFIABLE
